p cnf 7230 16
4704 5180 5483 0
-1674 -5218 -5481 0
-2228 -5216 -5479 0
-4704 -5484 0
1674 -5482 0
2228 -5480 0
-5483 5484 0
5481 5482 0
5479 5480 0
5477 5478 0
5170 -5478 0
-5170 -5477 0
-5180 -5484 0
5218 -5482 0
5216 -5480 0
-5178 -5486 0
